WARNING: for repeatability, setting FPU to use double precision
============================[ Problem Statistics ]=============================
|                                                                             |
|  Number of variables:         80042                                         |
|  Number of clauses:          314597                                         |
|  Parse time:                   0.08 s                                       |
|                                                                             |
c ============================[ Search Statistics ]==============================
c | Conflicts |          ORIGINAL         |          LEARNT          | Progress |
c |           |    Vars  Clauses Literals |    Limit  Clauses Lit/Cl |          |
c ===============================================================================
c Switched to VSIDS.
c Switched to LRB.
c Switched to VSIDS.
c Switched to LRB.
c Switched to VSIDS.
c Switched to LRB.
c Switched to VSIDS.
c Switched to LRB.
c Switched to VSIDS.
c Switched to LRB.
c Switched to VSIDS.
c Switched to LRB.
c Switched to VSIDS.
c Switched to LRB.
c Switched to VSIDS.
c Switched to LRB.
c Switched to VSIDS.
c Switched to LRB.
c Switched to VSIDS.
c Switched to LRB.
c Switched to VSIDS.
c Switched to LRB.
c Switched to VSIDS.
c Switched to LRB.
c Switched to VSIDS.
c Switched to LRB.
c Switched to VSIDS.
c Switched to LRB.
c Switched to VSIDS.
c Switched to LRB.
c Switched to VSIDS.
c Switched to LRB.
c Switched to VSIDS.
c Switched to LRB.
c Switched to VSIDS.
c ===============================================================================
restarts                  : 78015
conflicts                 : 14593782       (4133 /sec)
decisions                 : 126270750      (0.00 % random) (35761 /sec)
propagations              : 8726004401     (2471261 /sec)
conflict literals         : 1516488805     (7.47 % deleted)

conflicts w/ DIP found    : 12315861       (84.39 % of conflicts)
conflicts w/ dangerous DIP: 0              (0.00 % of conflicts)
conflicts w/ DIP-learning : 117919         (0.81 % of conflicts)
decisions on ext vars     : 938919         (0.74 % of decisions)
total ext vars            : 12826       
tried delete ext vars     : 3           
deleted ext vars          : 3           
max ext vars              : 12823       

Memory used               : 893.00 MB
CPU time                  : 3530.99 s
DIP computation time      : 123.648 s (3.50 % of total time)
ER_sel time               : 23.6367 s
ER_add time               : 0.072651 s
ER_delC time              : 0 s
ER_delV time              : 0.002481 s
ER_sub time               : 28.2297 s
ER_stat time              : 0 s

INDETERMINATE
